474 473 472 471 470 469 468 467 466 465 464 496 497 463 462 461 460 459 458 457 456 455 454 439 443 444 445 442 446 447 448 449 450 451 441 440 453 452 499 500 501 498 502 503 504 505 308 309 310 311 312 313 316 314 315 374 373 322 323 324 325 326 327 328 329 366 342 330 331 332 333 334 288 289 290 276 277 278 279 282 281 280 287 286 285 284 283 335 336 337 338 339 340 341 343 344 345 346 364 365 367 368 369 370 372 371 396 395 375 376 377 378 379 380 381 382 383 384 385 386 387 388 389 390 392 391 393 394 397 398 399 400 404 405 406 407 408 409 403 402 401 360 359 358 361 363 362 347 348 349 350 351 352 353 354 355 357 356 412 411 410 418 419 417 413 414 415 416 420 421 422 423 424 425 426 427 428 429 431 430 432 433 434 435 436 438 437 3 2 1 4 0 573 571 572 5 6 7 8 9 10 11 17 18 16 15 14 13 12 23 22 31 36 37 38 35 40 41 39 42 43 44 47 48 49 54 52 50 51 84 53 55 56 83 82 57 58 59 60 61 63 62 79 80 81 87 86 85 92 91 46 45 555 556 557 554 553 552 551 101 102 100 99 98 96 95 97 94 93 90 89 88 78 77 76 64 75 74 73 119 118 120 121 122 123 71 72 65 66 67 68 70 69 124 125 126 127 128 129 130 131 132 133 134 135 136 137 138 139 140 141 151 150 149 152 148 147 142 143 144 146 145 158 157 153 156 159 155 154 160 113 161 162 168 163 167 166 164 165 203 204 202 201 200 199 198 205 206 207 208 209 210 211 212 213 214 215 216 217 223 224 222 221 220 218 219 193 194 195 196 197 184 183 185 192 191 190 226 225 189 227 228 229 230 231 533 532 489 488 534 535 487 486 490 491 492 526 528 529 530 531 233 232 234 235 236 237 240 239 238 246 247 245 244 243 242 241 248 249 250 251 252 254 253 255 256 257 260 261 259 258 262 263 264 265 266 267 271 268 270 269 272 273 274 275 292 291 293 294 295 296 297 298 299 300 301 302 508 507 303 304 306 319 320 321 317 318 305 307 506 516 515 514 513 509 510 511 512 527 522 523 521 520 517 519 518 495 494 524 525 493 475 476 477 478 479 480 481 482 483 485 484 536 537 539 538 540 176 177 178 187 188 186 182 179 181 180 169 171 170 172 175 174 173 108 109 107 110 111 112 114 115 116 117 106 105 104 103 547 543 542 541 544 545 546 548 549 564 566 565 563 562 561 560 550 559 558 34 33 32 30 29 28 27 26 25 24 21 20 19 570 569 568 567